# Solution for model micodag
# Objective value = 8.3558649222481343e+00
s_0_1 0
s_1_0 0
s_0_2 0
s_2_0 0
s_0_4 0
s_4_0 2.2828012907663986e-01
s_1_2 0
s_2_1 4.0635441436799491e-01
s_1_3 0
s_3_1 2.3392261545014881e-01
s_2_4 0
s_4_2 4.1261475428835359e-01
s_4_5 0
s_5_4 2.5084563320545126e+00
s_0_0 6.6654384740257444e-01
s_1_1 6.4658306290056533e-01
s_2_2 6.2410872145820218e-01
s_3_3 7.1848406126182618e-01
s_4_4 2.5084563320545126e+00
s_5_5 9.3426679341344832e-01
Gamma_0_0 8.1642136633148843e-01
Gamma_0_1 0
Gamma_0_2 0
Gamma_0_3 0
Gamma_0_4 0
Gamma_0_5 0
Gamma_1_0 0
Gamma_1_1 8.0410388812675548e-01
Gamma_1_2 0
Gamma_1_3 0
Gamma_1_4 0
Gamma_1_5 0
Gamma_2_0 0
Gamma_2_1 6.3745934330590492e-01
Gamma_2_2 7.9000551989097045e-01
Gamma_2_3 0
Gamma_2_4 0
Gamma_2_5 0
Gamma_3_0 0
Gamma_3_1 4.8365547184969332e-01
Gamma_3_2 0
Gamma_3_3 8.4763439126891627e-01
Gamma_3_4 0
Gamma_3_5 0
Gamma_4_0 -4.7778669830442150e-01
Gamma_4_1 0
Gamma_4_2 -0.642350958813291
Gamma_4_3 0
Gamma_4_4 8.0956998584402384e-01
Gamma_4_5 0
Gamma_5_0 0
Gamma_5_1 0
Gamma_5_2 0
Gamma_5_3 0
Gamma_5_4 -7.8774040521331368e-01
Gamma_5_5 9.6657477383462109e-01
psi_0 2
psi_1 3
psi_2 2
psi_3 0
psi_4 1
psi_5 0
g_0_0 0
g_0_1 0
g_0_2 0
g_0_3 0
g_0_4 0
g_0_5 0
g_1_0 0
g_1_1 0
g_1_2 0
g_1_3 0
g_1_4 0
g_1_5 0
g_2_0 0
g_2_1 1
g_2_2 0
g_2_3 0
g_2_4 0
g_2_5 0
g_3_0 0
g_3_1 1
g_3_2 0
g_3_3 0
g_3_4 0
g_3_5 0
g_4_0 1
g_4_1 0
g_4_2 1
g_4_3 0
g_4_4 0
g_4_5 0
g_5_0 0
g_5_1 0
g_5_2 0
g_5_3 0
g_5_4 1
g_5_5 0
T_0 4.0564935397652846e-01
T_1 0.436053608125178
T_2 4.7143069268344107e-01
T_3 3.3061175706077961e-01
T_4 4.2250410791453419e-01
T_5 6.7993235489410608e-02
